56213
50, 38, 44, 8, 32, 41, 19, 48, 17, 23, 21, 29, 22, 10, 53, 34, 54, 47, 4, 30, 18, 12, 14, 2, 52, 45, 42, 33, 1, 27, 31, 11, 25, 15, 36, 46, 39, 16, 9, 26, 55, 49, 28, 6, 3, 43, 13, 51, 40, 7, 37, 5, 35, 24, 20
